(declare-fun var0 () String)
(assert (str.in.re var0 (re.++ (re.union (re.union (str.to.re "uuu") (str.to.re "vv")) (re.+ (str.to.re "ww"))) (re.++ (re.union (re.* (str.to.re "rr")) (re.union (str.to.re "s") (str.to.re "ttt"))) (re.++ (re.* (re.+ (str.to.re "qqq"))) (re.++ (re.union (re.* (str.to.re "n")) (re.union (str.to.re "oo") (str.to.re "ppp"))) (re.++ (re.* (re.+ (str.to.re "mmm"))) (re.++ (re.* (re.+ (str.to.re "l"))) (re.++ (re.union (re.+ (str.to.re "jjj")) (re.* (str.to.re "k"))) (re.++ (re.* (re.union (str.to.re "hhh") (str.to.re "i"))) (re.++ (re.union (re.* (str.to.re "f")) (re.* (str.to.re "ggg"))) (re.++ (re.* (re.union (str.to.re "d") (str.to.re "e"))) (re.++ (re.* (re.+ (str.to.re "cc"))) (re.++ (re.+ (re.+ (str.to.re "bb"))) (re.++ (re.union (re.+ (str.to.re "9")) (re.+ (str.to.re "a"))) (re.++ (re.+ (re.union (str.to.re "7") (str.to.re "888"))) (re.++ (re.+ (re.+ (str.to.re "6"))) (re.++ (re.* (re.union (str.to.re "4") (str.to.re "5"))) (re.++ (re.* (re.+ (str.to.re "333"))) (re.++ (re.* (re.* (str.to.re "22"))) (re.union (re.+ (str.to.re "00")) (re.* (str.to.re "11")))))))))))))))))))))))
(check-sat)